(declare-sort $$unsorted 0)
(declare-fun tptp.op ($$unsorted $$unsorted) $$unsorted)
(assert (forall ((X0 $$unsorted) (X1 $$unsorted) (X2 $$unsorted) (X3 $$unsorted)) (= (tptp.op X0 X1) (tptp.op (tptp.op (tptp.op X2 X3) X0) X1))))
(assert (not (forall ((X0 $$unsorted) (X1 $$unsorted) (X2 $$unsorted) (X3 $$unsorted)) (= (tptp.op (tptp.op X0 X1) X2) (tptp.op (tptp.op X3 X1) X2)))))
(set-info :filename Equation4243_implies_Equation4689)
(check-sat-assuming ( true ))
